&CONTROL
  calculation  = "relax",
  prefix       = "H2",
  pseudo_dir   = '/home/fito/.qespresso/upf_files'
  outdir       = "log/"
/
&SYSTEM
  ibrav     = 0,
  nat       = 2,
  ntyp      = 2,
  ecutwfc   = 120.D0,
  occupations="smearing"
  smearing  = "gaussian"
  degauss   = 0.01
/
&ELECTRONS
  conv_thr    = 1.D-7,
  mixing_beta = 0.7D0,
/
&IONS
/
CELL_PARAMETERS cubic
40.0  0.0  0.0
 0.0 40.0  0.0
 0.0  0.0 40.0
ATOMIC_SPECIES
H 1.00 H.pz-rrkjus.UPF
O 16.0 O.pz-rrkjus.UPF
 
K_POINTS {Gamma}

ATOMIC_POSITIONS {bohr}
H 0 0 0
O 0.96 0 0
