memory 250 mb

molecule co2 {
  C 
  O 1 0.96
  O 1 1.20 2 90
}

set basis cc-pVDZ

op, wfn = optimize('hf', return_wfn=True, molecule=co2)
molden(wfn, "op.molden", density_a=wfn.Da())
