molecule h {
  H
}

set basis cc-pvdz
set reference uhf
energy('scf')  # on H