molecule h {
  H
}

# set basis cc-pvdz
set basis dzp
# set basis cc-pwcv_tpd_z
set reference uhf
energy('scf')  # on H