 # Version information for this restart file 
 # current date 2016-12-15 19:22:07.327
 # current working dir /media/fito/Windows/Users/fitoh/Documents/code/nanosciencecourse/cp2k
 # Program compiled at                              Mon Feb 29 01:47:39 UTC 2016
 # Program compiled on                                                  lcy01-36
 # Program compiled for                                    Linux-x86_64-gfortran
 # Source code revision number                                         svn:15893
 &GLOBAL
   PRINT_LEVEL  LOW
   PROJECT_NAME run-1H2O-GOPT
   RUN_TYPE  GEO_OPT
 &END GLOBAL
 &FORCE_EVAL
   METHOD  QS
   &DFT
     BASIS_SET_FILE_NAME /Network/Servers/130.60.15.139/Users/c329s00/cp2k-files/GTH_BASIS_SETS
     POTENTIAL_FILE_NAME /Network/Servers/130.60.15.139/Users/c329s00/cp2k-files/GTH_POTENTIALS
     &SCF
       EPS_SCF     9.9999999999999995E-07
     &END SCF
     &MGRID
       CUTOFF     2.5000000000000000E+02
     &END MGRID
     &XC
       DENSITY_CUTOFF     1.0000000000000000E-10
       GRADIENT_CUTOFF     1.0000000000000000E-10
       TAU_CUTOFF     1.0000000000000000E-10
       &XC_GRID
         XC_SMOOTH_RHO  NN10
         XC_DERIV  SPLINE2_SMOOTH
       &END XC_GRID
       &XC_FUNCTIONAL  NO_SHORTCUT
         &BECKE88  T
         &END BECKE88
         &LYP  T
         &END LYP
       &END XC_FUNCTIONAL
     &END XC
   &END DFT
   &SUBSYS
     &CELL
       A     1.5000000000000002E+01    0.0000000000000000E+00    0.0000000000000000E+00
       B     0.0000000000000000E+00    1.5000000000000002E+01    0.0000000000000000E+00
       C     0.0000000000000000E+00    0.0000000000000000E+00    1.5000000000000002E+01
       MULTIPLE_UNIT_CELL  1 1 1
     &END CELL
     &COORD
O    3.6179428701561922E-09    5.9764410588680060E-02    2.8649214564904926E-08
H    7.7053587854358119E-01    6.6081497390136268E-01    1.5006807068205612E-09
H   -7.7053587425126946E-01    6.6081497079336093E-01    1.8224531171285119E-09
     &END COORD
     &KIND H
       BASIS_SET TZVP-GTH
       POTENTIAL GTH-BLYP-q1
       &BASIS
 2
 1 0 0 5 3
  0.1088272415850000E+02 -0.1670588850000000E-01  0.0000000000000000E+00  0.0000000000000000E+00
  0.3096875087600000E+01 -0.6275383000000000E-01  0.0000000000000000E+00  0.0000000000000000E+00
  0.9874518162000000E+00 -0.1917521975000000E+00  0.0000000000000000E+00  0.0000000000000000E+00
  0.3450687533000000E+00 -0.4173635232000000E+00  0.1000000000000000E+01  0.0000000000000000E+00
  0.1492693554000000E+00 -0.4270508887000000E+00  0.0000000000000000E+00  0.1000000000000000E+01
 2 1 1 1 1
  0.7270000000000000E+00  0.1000000000000000E+01
         # Basis set name:  TZVP-GTH  for symbol:  H
         # Basis set read from the basis set filename: /Network/Servers/130.60.15.139/Users/c329s00/cp2k-files/GTH_BASIS_SETS
       &END BASIS
       &POTENTIAL
 1
  0.2000000000000000E+00 2 -0.4195961470000000E+01  0.7304982100000000E+00
 0
         # Potential name:  GTH-BLYP-Q1  for symbol:  H
         # Potential read from the potential filename: /Network/Servers/130.60.15.139/Users/c329s00/cp2k-files/GTH_POTENTIALS
       &END POTENTIAL
     &END KIND
     &KIND O
       BASIS_SET TZVP-GTH
       POTENTIAL GTH-BLYP-q6
       &BASIS
 2
 2 0 1 5 3 3
  0.1026744199380000E+02  0.9895984600000000E-01  0.0000000000000000E+00  0.0000000000000000E+00 -0.5958569400000000E-01  0.0000000000000000E+00  0.0000000000000000E+00
  0.3748049569600000E+01  0.1041178339000000E+00  0.0000000000000000E+00  0.0000000000000000E+00 -0.1875649045000000E+00  0.0000000000000000E+00  0.0000000000000000E+00
  0.1330833770400000E+01 -0.3808255700000000E+00  0.0000000000000000E+00  0.0000000000000000E+00 -0.3700707718000000E+00  0.0000000000000000E+00  0.0000000000000000E+00
  0.4556802254000000E+00 -0.6232449802000000E+00  0.1000000000000000E+01  0.0000000000000000E+00 -0.4204922615000000E+00  0.1000000000000000E+01  0.0000000000000000E+00
  0.1462920596000000E+00 -0.1677863491000000E+00  0.0000000000000000E+00  0.1000000000000000E+01 -0.2313901687000000E+00  0.0000000000000000E+00  0.1000000000000000E+01
 3 2 2 1 1
  0.1185000000000000E+01  0.1000000000000000E+01
         # Basis set name:  TZVP-GTH  for symbol:  O
         # Basis set read from the basis set filename: /Network/Servers/130.60.15.139/Users/c329s00/cp2k-files/GTH_BASIS_SETS
       &END BASIS
       &POTENTIAL
 2 4
  0.2434202600000000E+00 2 -0.1699189235000000E+02  0.2566142060000000E+01
 2
  0.2208314000000000E+00 1  0.1838885102000000E+02
  0.2172007000000000E+00 0
         # Potential name:  GTH-BLYP-Q6  for symbol:  O
         # Potential read from the potential filename: /Network/Servers/130.60.15.139/Users/c329s00/cp2k-files/GTH_POTENTIALS
       &END POTENTIAL
     &END KIND
     &TOPOLOGY
       NUMBER_OF_ATOMS  3
       MULTIPLE_UNIT_CELL  1 1 1
     &END TOPOLOGY
   &END SUBSYS
 &END FORCE_EVAL
